10J3M/DAT/10J3MNTL-17.dat
10 3
25.7654 25.7654
25.3647 25.3647
28.3927 28.3927
30.7495 30.7495
23.3271 23.3271
26.263 26.263
26.3975 26.3975
20.8674 20.8674
19.2602 19.2602
28.7352 28.7352
63.7807