10J3M/SOL/10J3MNTL-17.sol
solution status: optimal solution found
objective value:                              59.5083
x#1#1                                               1 	(obj:0)
x#2#2                                               1 	(obj:0)
x#3#3                                               1 	(obj:0)
x#4#3                               0.909974289030111 	(obj:0)
x#5#1                               0.881592595547754 	(obj:0)
x#5#2                               0.118407404452246 	(obj:0)
x#7#1                                               1 	(obj:0)
x#8#2                               0.636115881592097 	(obj:0)
x#8#3                               0.363884118407903 	(obj:0)
x#10#2                                              1 	(obj:0)
z                                             59.5083 	(obj:1)
